p tw 604 1128
1 540
1 541
2 303
2 304
2 449
2 450
2 535
2 536
3 556
3 557
4 601
4 602
5 258
5 259
5 572
5 573
6 584
6 585
7 329
7 330
8 235
8 236
8 409
8 410
9 476
9 477
10 317
10 318
10 410
10 411
10 461
10 462
11 503
11 504
11 546
11 547
12 519
12 520
13 338
13 339
14 236
14 237
14 411
14 412
14 462
14 463
15 237
15 238
16 362
16 363
17 286
17 287
17 421
17 422
17 515
17 516
18 251
18 252
19 567
19 568
20 323
20 324
21 331
21 332
22 257
22 258
22 487
22 488
23 233
23 234
24 379
24 380
25 255
25 256
25 486
25 487
26 547
26 548
27 296
27 297
27 438
27 439
28 256
28 257
29 280
29 281
30 300
30 301
31 355
31 356
32 389
32 390
32 529
32 530
33 569
33 570
34 239
34 240
35 590
35 591
36 388
36 389
37 347
37 348
37 597
37 598
38 240
38 241
39 234
39 235
39 408
39 409
39 460
39 461
40 241
40 242
41 363
41 364
42 304
42 305
43 327
43 328
43 578
43 579
44 330
44 331
45 230
45 231
45 453
45 454
46 336
46 337
46 427
46 428
46 478
46 479
47 588
47 589
48 132
48 604
49 315
49 316
50 465
50 466
51 392
51 393
52 285
52 286
53 325
53 326
54 583
54 584
55 354
55 355
56 339
56 340
56 430
56 431
56 591
56 592
57 573
57 574
58 349
58 350
59 520
59 521
60 581
60 582
61 371
61 372
61 510
61 511
62 269
62 270
63 199
63 342
63 343
63 396
63 435
63 436
64 341
64 342
64 566
64 567
65 242
65 243
65 602
65 603
66 589
66 590
67 350
67 351
68 596
68 597
69 318
69 319
69 545
69 546
70 364
70 365
70 407
70 408
71 386
71 387
72 292
72 293
72 429
72 430
72 523
72 524
73 576
73 577
74 368
74 369
75 322
75 323
75 468
75 469
76 277
76 278
76 414
76 415
76 504
76 505
77 366
77 367
78 254
78 255
78 442
78 443
78 485
78 486
78 599
78 600
79 310
79 311
80 361
80 362
80 496
80 497
80 539
80 540
81 358
81 359
81 490
81 491
81 574
81 575
82 563
82 564
83 103
83 196
83 305
83 306
83 451
83 536
83 537
83 577
84 352
84 353
84 488
84 489
84 571
84 572
85 348
85 349
85 443
85 444
85 484
85 485
86 382
86 383
87 562
87 563
88 565
88 566
89 367
89 368
89 506
89 507
90 265
90 266
91 390
91 391
91 444
91 445
92 312
92 313
92 401
92 402
92 457
92 458
93 284
93 285
93 550
93 551
94 559
94 560
95 321
95 322
96 313
96 314
96 403
96 404
96 459
96 460
96 585
96 586
97 480
97 481
98 380
98 381
99 579
99 580
100 290
100 291
101 270
101 271
102 531
102 532
103 173
103 307
103 308
103 451
103 537
104 279
104 280
105 262
105 263
106 306
106 307
107 381
107 382
108 345
108 346
108 437
108 438
109 337
109 338
110 549
110 550
111 603
111 604
112 542
112 543
113 243
113 244
113 416
113 417
113 467
113 468
114 326
114 327
114 554
114 555
115 360
115 361
115 495
115 496
116 272
116 273
116 500
116 501
117 373
117 374
117 417
117 418
117 511
117 512
118 245
118 246
118 472
118 473
119 273
119 274
119 405
119 406
120 229
120 230
120 397
120 398
120 452
120 453
121 466
121 467
122 383
122 384
123 344
123 345
124 276
124 277
124 502
124 503
125 548
125 549
126 261
126 262
126 447
126 448
126 491
126 492
127 538
127 539
128 564
128 565
129 600
129 601
130 271
130 272
130 404
130 405
130 499
130 500
131 471
131 472
132 604
133 593
133 594
134 555
134 556
135 340
135 341
135 432
135 433
135 481
135 482
136 509
136 510
136 551
136 552
137 598
137 599
138 293
138 294
139 314
139 315
140 232
140 233
140 400
140 401
140 455
140 456
141 456
141 457
142 316
142 317
143 246
143 247
143 425
143 426
143 474
143 475
144 521
144 522
145 281
145 282
146 247
146 248
146 426
146 427
147 231
147 232
147 399
147 400
147 454
147 455
148 250
148 251
148 428
148 429
148 479
148 480
149 302
149 303
149 448
149 449
149 533
149 534
150 384
150 385
151 274
151 275
151 501
151 502
152 544
152 545
153 308
153 309
154 299
154 300
154 445
154 446
154 530
154 531
155 332
155 333
155 473
155 474
156 595
156 596
157 328
157 329
157 423
157 424
157 470
157 471
158 252
158 253
158 433
158 434
158 482
158 483
159 253
159 254
159 439
159 440
160 493
160 494
161 582
161 583
162 374
162 375
162 419
162 420
162 513
162 514
163 324
163 325
163 553
163 554
164 356
164 357
165 283
165 284
166 268
166 269
167 580
167 581
168 275
168 276
168 594
168 595
169 288
169 289
170 353
170 354
170 395
170 396
170 446
170 447
170 489
170 490
171 517
171 518
172 291
172 292
172 522
172 523
172 560
172 561
173 178
173 393
173 537
174 378
174 379
175 319
175 320
175 412
175 413
175 463
175 464
176 259
176 260
177 266
177 267
177 494
177 495
178 393
178 450
178 451
178 534
178 535
179 238
179 239
179 413
179 414
179 464
179 465
180 298
180 299
181 309
181 310
181 398
181 399
182 333
182 334
182 558
182 559
183 248
183 249
184 543
184 544
185 568
185 569
186 570
186 571
187 278
187 279
187 505
187 506
188 587
188 588
189 334
189 335
190 375
190 376
190 420
190 421
190 514
190 515
191 264
191 265
192 586
192 587
193 369
193 370
193 415
193 416
193 507
193 508
194 359
194 360
195 458
195 459
196 263
196 264
196 492
196 493
196 577
197 377
197 378
197 424
197 425
197 518
197 519
198 475
198 476
198 557
198 558
199 365
199 366
199 396
199 406
199 407
200 295
200 296
200 436
200 437
201 289
201 290
202 267
202 268
202 402
202 403
202 498
202 499
203 357
203 358
204 391
204 392
205 526
205 527
206 287
206 288
207 497
207 498
208 370
208 371
209 343
209 344
210 320
210 321
211 372
211 373
211 418
211 419
211 552
211 553
212 376
212 377
212 422
212 423
212 516
212 517
213 346
213 347
213 440
213 441
213 483
213 484
214 301
214 302
214 532
214 533
215 311
215 312
216 385
216 386
216 434
216 435
216 525
216 526
217 512
217 513
218 335
218 336
219 294
219 295
219 431
219 432
219 524
219 525
219 592
219 593
220 297
220 298
221 541
221 542
222 282
222 283
222 508
222 509
223 249
223 250
223 477
223 478
223 561
223 562
224 351
224 352
225 244
225 245
225 469
225 470
226 387
226 388
226 394
226 395
226 441
226 442
226 527
226 528
227 260
227 261
227 575
227 576
228 528
228 529
229 230
230 231
231 232
232 233
233 234
234 235
235 236
236 237
237 238
238 239
239 240
240 241
241 242
242 243
243 244
244 245
245 246
246 247
247 248
248 249
249 250
250 251
251 252
252 253
253 254
254 255
255 256
256 257
257 258
258 259
259 260
260 261
261 262
262 263
263 264
264 265
265 266
266 267
267 268
268 269
269 270
270 271
271 272
272 273
273 274
274 275
275 276
276 277
277 278
278 279
279 280
280 281
281 282
282 283
283 284
284 285
285 286
286 287
287 288
288 289
289 290
290 291
291 292
292 293
293 294
294 295
295 296
296 297
297 298
298 299
299 300
300 301
301 302
302 303
303 304
304 305
305 306
306 307
307 308
308 309
309 310
310 311
311 312
312 313
313 314
314 315
315 316
316 317
317 318
318 319
319 320
320 321
321 322
322 323
323 324
324 325
325 326
326 327
327 328
328 329
329 330
330 331
331 332
332 333
333 334
334 335
335 336
336 337
337 338
338 339
339 340
340 341
341 342
342 343
343 344
344 345
345 346
346 347
347 348
348 349
349 350
350 351
351 352
352 353
353 354
354 355
355 356
356 357
357 358
358 359
359 360
360 361
361 362
362 363
363 364
364 365
365 366
366 367
367 368
368 369
369 370
370 371
371 372
372 373
373 374
374 375
375 376
376 377
377 378
378 379
379 380
380 381
381 382
382 383
383 384
384 385
385 386
386 387
387 388
388 389
389 390
390 391
391 392
392 393
394 395
395 396
397 398
398 399
399 400
400 401
401 402
402 403
403 404
404 405
405 406
406 407
407 408
408 409
409 410
410 411
411 412
412 413
413 414
414 415
415 416
416 417
417 418
418 419
419 420
420 421
421 422
422 423
423 424
424 425
425 426
426 427
427 428
428 429
429 430
430 431
431 432
432 433
433 434
434 435
435 436
436 437
437 438
438 439
439 440
440 441
441 442
442 443
443 444
444 445
445 446
446 447
447 448
448 449
449 450
450 451
452 453
453 454
454 455
455 456
456 457
457 458
458 459
459 460
460 461
461 462
462 463
463 464
464 465
465 466
466 467
467 468
468 469
469 470
470 471
471 472
472 473
473 474
474 475
475 476
476 477
477 478
478 479
479 480
480 481
481 482
482 483
483 484
484 485
485 486
486 487
487 488
488 489
489 490
490 491
491 492
492 493
493 494
494 495
495 496
496 497
497 498
498 499
499 500
500 501
501 502
502 503
503 504
504 505
505 506
506 507
507 508
508 509
509 510
510 511
511 512
512 513
513 514
514 515
515 516
516 517
517 518
518 519
519 520
520 521
521 522
522 523
523 524
524 525
525 526
526 527
527 528
528 529
529 530
530 531
531 532
532 533
533 534
534 535
535 536
536 537
538 539
539 540
540 541
541 542
542 543
543 544
544 545
545 546
546 547
547 548
548 549
549 550
550 551
551 552
552 553
553 554
554 555
555 556
556 557
557 558
558 559
559 560
560 561
561 562
562 563
563 564
564 565
565 566
566 567
567 568
568 569
569 570
570 571
571 572
572 573
573 574
574 575
575 576
576 577
578 579
579 580
580 581
581 582
582 583
583 584
584 585
585 586
586 587
587 588
588 589
589 590
590 591
591 592
592 593
593 594
594 595
595 596
596 597
597 598
598 599
599 600
600 601
601 602
602 603
603 604
